NAME : local_0
TYPE : ATSP
DIMENSION : 35
EDGE_WEIGHT_TYPE : EXPLICIT
EDGE_WEIGHT_FORMAT : FULL_MATRIX
EDGE_WEIGHT_SECTION
0 10000000 10000000 10000000 844 10000000 427 10000000 10000000 924 10000000 10000000 10000000 10000000 10000000 10000000 10000000 10000000 674 972 811 10000000 10000000 10000000 718 10000000 10000000 813 10000000 10000000 10000000 1184 393 10000000 10000000 
0 0 10000000 10000000 10000000 657 10000000 10000000 10000000 640 10000000 10000000 10000000 328 10000000 10000000 10000000 10000000 873 10000000 10000000 10000000 10000000 10000000 10000000 10000000 10000000 802 10000000 851 908 10000000 10000000 359 927 
0 10000000 0 679 842 10000000 10000000 10000000 10000000 10000000 10000000 10000000 10000000 10000000 476 1066 10000000 864 10000000 10000000 10000000 10000000 10000000 10000000 10000000 10000000 10000000 10000000 10000000 10000000 10000000 1116 10000000 10000000 10000000 
0 10000000 679 0 789 10000000 10000000 10000000 10000000 10000000 10000000 10000000 10000000 10000000 202 787 10000000 10000000 10000000 10000000 10000000 10000000 10000000 10000000 10000000 10000000 10000000 10000000 10000000 10000000 10000000 982 10000000 10000000 10000000 
0 10000000 882 775 0 10000000 10000000 10000000 10000000 10000000 10000000 10000000 10000000 10000000 796 636 951 10000000 995 10000000 10000000 10000000 10000000 549 10000000 915 10000000 10000000 10000000 10000000 10000000 564 10000000 10000000 10000000 
0 657 10000000 10000000 10000000 0 737 10000000 10000000 585 10000000 10000000 10000000 333 10000000 10000000 10000000 10000000 635 356 428 10000000 10000000 10000000 679 10000000 10000000 364 10000000 10000000 340 10000000 843 809 10000000 
0 10000000 10000000 10000000 10000000 737 0 10000000 10000000 564 10000000 10000000 10000000 901 10000000 10000000 10000000 10000000 317 596 433 10000000 10000000 981 462 10000000 1039 385 10000000 10000000 937 10000000 248 10000000 10000000 
0 10000000 10000000 10000000 10000000 10000000 10000000 0 10000000 10000000 363 624 887 10000000 10000000 10000000 784 10000000 10000000 10000000 10000000 547 510 10000000 10000000 908 977 10000000 890 10000000 10000000 10000000 10000000 10000000 929 
0 10000000 10000000 10000000 10000000 10000000 10000000 10000000 0 10000000 10000000 698 465 10000000 10000000 844 10000000 796 10000000 10000000 10000000 10000000 790 10000000 10000000 645 616 10000000 10000000 10000000 10000000 805 10000000 10000000 10000000 
0 640 10000000 10000000 10000000 585 564 10000000 10000000 0 1143 10000000 10000000 516 10000000 10000000 1061 10000000 254 739 659 1101 10000000 804 860 10000000 10000000 377 949 829 893 10000000 800 485 842 
0 10000000 10000000 10000000 10000000 10000000 10000000 363 10000000 1183 0 526 760 10000000 10000000 10000000 426 10000000 10000000 10000000 10000000 199 466 875 10000000 686 10000000 10000000 568 1087 10000000 992 10000000 10000000 647 
0 10000000 10000000 10000000 10000000 10000000 10000000 624 698 10000000 526 0 263 10000000 10000000 821 656 10000000 10000000 10000000 10000000 483 123 1018 10000000 343 635 10000000 956 10000000 10000000 717 10000000 10000000 10000000 
0 10000000 10000000 10000000 10000000 10000000 10000000 887 465 10000000 760 263 0 10000000 10000000 662 773 10000000 10000000 10000000 10000000 668 380 1085 10000000 241 625 10000000 10000000 10000000 10000000 557 10000000 10000000 10000000 
0 328 10000000 10000000 10000000 333 901 10000000 10000000 516 10000000 10000000 10000000 0 10000000 10000000 10000000 10000000 685 681 716 10000000 10000000 10000000 974 10000000 10000000 527 10000000 10000000 617 10000000 10000000 534 10000000 
0 10000000 476 202 763 10000000 10000000 10000000 10000000 10000000 10000000 10000000 10000000 10000000 0 890 10000000 10000000 10000000 10000000 10000000 10000000 10000000 10000000 10000000 10000000 10000000 10000000 10000000 10000000 10000000 974 10000000 10000000 10000000 
0 10000000 1201 787 636 10000000 10000000 10000000 844 10000000 10000000 821 662 10000000 894 0 768 10000000 10000000 10000000 10000000 873 933 758 10000000 480 10000000 10000000 10000000 10000000 10000000 203 10000000 10000000 10000000 
0 10000000 10000000 10000000 951 10000000 10000000 784 10000000 1031 426 656 773 10000000 10000000 768 0 10000000 10000000 10000000 10000000 248 674 518 10000000 585 10000000 10000000 339 838 10000000 735 10000000 10000000 544 
0 10000000 864 10000000 10000000 10000000 10000000 10000000 796 10000000 10000000 10000000 10000000 10000000 10000000 10000000 10000000 0 10000000 10000000 10000000 10000000 10000000 10000000 10000000 10000000 10000000 10000000 10000000 10000000 10000000 10000000 10000000 10000000 10000000 
0 873 10000000 10000000 995 635 317 10000000 10000000 254 10000000 10000000 10000000 685 10000000 10000000 10000000 10000000 0 659 534 10000000 10000000 812 682 10000000 10000000 299 10000000 10000000 911 10000000 560 738 10000000 
0 10000000 10000000 10000000 10000000 356 596 10000000 10000000 739 10000000 10000000 10000000 681 10000000 10000000 10000000 10000000 659 0 202 10000000 10000000 10000000 348 10000000 888 379 10000000 10000000 374 10000000 602 10000000 10000000 
0 10000000 10000000 10000000 10000000 428 433 10000000 10000000 659 10000000 10000000 10000000 716 10000000 10000000 10000000 10000000 534 202 0 10000000 10000000 10000000 258 10000000 860 289 10000000 10000000 527 10000000 448 10000000 10000000 
0 10000000 10000000 10000000 10000000 10000000 10000000 547 10000000 1085 199 483 668 10000000 10000000 873 248 10000000 10000000 10000000 10000000 0 468 710 10000000 543 10000000 10000000 486 951 10000000 812 10000000 10000000 625 
0 10000000 10000000 10000000 10000000 10000000 10000000 510 790 10000000 466 123 380 10000000 10000000 933 674 10000000 10000000 10000000 10000000 468 0 10000000 10000000 458 628 10000000 946 10000000 10000000 824 10000000 10000000 10000000 
0 10000000 10000000 10000000 549 10000000 981 10000000 10000000 804 875 999 1050 10000000 10000000 758 518 10000000 812 10000000 10000000 710 10000000 0 10000000 813 10000000 10000000 577 770 10000000 689 10000000 962 689 
0 10000000 10000000 10000000 10000000 679 462 10000000 10000000 860 10000000 10000000 10000000 974 10000000 10000000 10000000 10000000 682 348 258 10000000 10000000 10000000 0 10000000 723 514 10000000 10000000 699 10000000 344 10000000 10000000 
0 10000000 10000000 10000000 915 10000000 10000000 908 645 10000000 686 343 241 10000000 10000000 480 585 10000000 10000000 10000000 10000000 543 458 813 10000000 0 842 10000000 923 10000000 10000000 405 10000000 10000000 10000000 
0 10000000 10000000 10000000 10000000 10000000 1009 977 616 10000000 10000000 635 625 10000000 10000000 10000000 10000000 10000000 10000000 888 860 10000000 628 10000000 723 842 0 10000000 10000000 10000000 10000000 10000000 896 10000000 10000000 
0 802 10000000 10000000 10000000 364 385 10000000 10000000 377 10000000 10000000 10000000 527 10000000 10000000 10000000 10000000 299 379 289 10000000 10000000 10000000 514 10000000 10000000 0 10000000 10000000 626 10000000 543 796 10000000 
0 10000000 10000000 10000000 10000000 10000000 10000000 890 10000000 949 568 956 10000000 10000000 10000000 10000000 339 10000000 10000000 10000000 10000000 486 946 577 10000000 923 10000000 10000000 0 543 10000000 10000000 10000000 869 249 
0 851 10000000 10000000 10000000 10000000 10000000 10000000 10000000 829 1096 10000000 10000000 10000000 10000000 10000000 838 10000000 10000000 10000000 10000000 951 10000000 770 10000000 10000000 10000000 10000000 543 0 10000000 10000000 10000000 529 354 
0 908 10000000 10000000 10000000 340 937 10000000 10000000 893 10000000 10000000 10000000 617 10000000 10000000 10000000 10000000 911 374 527 10000000 10000000 10000000 699 10000000 10000000 626 10000000 10000000 0 10000000 973 10000000 10000000 
0 10000000 1124 986 564 10000000 10000000 10000000 742 10000000 992 717 557 10000000 1068 203 735 10000000 10000000 10000000 10000000 812 824 689 10000000 405 10000000 10000000 10000000 10000000 10000000 0 10000000 10000000 10000000 
0 10000000 10000000 10000000 10000000 843 248 10000000 10000000 800 10000000 10000000 10000000 10000000 10000000 10000000 10000000 10000000 560 602 448 10000000 10000000 10000000 344 10000000 896 543 10000000 10000000 973 10000000 0 10000000 10000000 
0 359 10000000 10000000 10000000 809 10000000 10000000 10000000 485 10000000 10000000 10000000 534 10000000 10000000 10000000 10000000 738 10000000 10000000 10000000 10000000 962 10000000 10000000 10000000 796 869 529 10000000 10000000 10000000 0 659 
0 10000000 10000000 10000000 10000000 10000000 10000000 10000000 10000000 10000000 10000000 10000000 10000000 10000000 10000000 10000000 10000000 10000000 10000000 10000000 10000000 10000000 10000000 10000000 10000000 10000000 10000000 10000000 10000000 10000000 10000000 10000000 10000000 10000000 0 
EOF